# Solution for model obj
# Objective value = 34
x#1 0
x#2 0
x#3 0
x#4 0
x#5 1
x#6 0
x#7 1
x#8 0
x#9 1
x#10 0
x#11 1
x#12 0
x#13 0
x#14 0
x#15 0
x#16 0
x#17 0
x#18 0
x#19 1
x#20 0
x#21 0
x#22 0
x#23 0
x#24 0
x#25 1
x#26 0
x#27 0
x#28 0
x#29 1
x#30 0
x#31 1
x#32 0
x#33 0
x#34 1
x#35 0
x#36 0
x#37 0
x#38 0
x#39 0
x#40 1
x#41 0
x#42 0
x#43 0
x#44 1
x#45 1
x#46 0
x#47 0
x#48 0
x#49 1
x#50 0
x#51 0
x#52 1
x#53 0
x#54 1
x#55 1
x#56 0
x#57 0
x#58 0
x#59 0
x#60 0
x#61 0
x#62 0
x#63 0
x#64 0
x#65 0
x#66 1
x#67 1
x#68 1
x#69 0
x#70 1
x#71 0
x#72 0
x#73 0
x#74 0
x#75 0
x#76 0
x#77 1
x#78 0
x#79 1
x#80 1
x#81 0
x#82 1
x#83 0
x#84 0
x#85 0
x#86 0
x#87 0
x#88 0
x#89 0
x#90 0
x#91 0
x#92 0
x#93 0
x#94 0
x#95 0
x#96 1
x#97 0
x#98 1
x#99 0
x#100 0
x#101 0
x#102 0
x#103 1
x#104 1
x#105 0
x#106 0
x#107 0
x#108 0
x#109 0
x#110 1
x#111 0
x#112 0
x#113 0
x#114 1
x#115 0
x#116 0
x#117 1
x#118 0
x#119 0
x#120 0
x#121 1
x#122 1
x#123 0
x#124 0
x#125 1
